c turning on binary mode checking
c parsing input formula with 259840 variables and 1039924 clauses
c finished parsing, read 24312660 bytes from proof file
c detected empty clause; start verification via backward checking
c 16097 of 1039924 clauses in core                            
c 22795 of 623181 lemmas in core using 206139 resolution steps
c 0 RAT lemmas in core; 1528 redundant literals in core lemmas
s VERIFIED
c verification time: 3.001 seconds
